NAME : swiss42-R-3-0-c.2080.tour
COMMENT : Length = 2080
COMMENT : Found by LKH-3 [Keld Helsgaun] Tue Jul 30 13:14:22 2024
TYPE : TOUR
DIMENSION : 42
TOUR_SECTION
1
5
2
15
17
38
21
34
35
39
31
30
24
41
40
23
9
13
19
20
16
7
4
28
29
33
32
37
36
18
8
14
6
27
12
26
11
42
25
22
10
3
-1
EOF
